POSCAR file mixion
1.0
  12.40000000   0.00000000   0.00000000 
   0.00000000  12.40000000   0.00000000 
   0.00000000   0.00000000  12.40000000 
H O N
   126    64     6 
Cartesian
   4.53883000  10.95090000   9.55808000 
  10.34250000   7.53469000  11.50090000 
   6.71949000   6.86766000   0.34733200 
  10.62820000   0.39506800   7.41844000 
   8.55276000   7.27178000   3.04028000 
  11.10940000   8.50858000   5.03949000 
   7.02947000   9.40331000  11.83020000 
  10.53040000   8.53391000  10.41370000 
   3.12701000  11.78050000   8.22257000 
   2.31028000   1.89446000   3.84278000 
   1.96034000  11.17050000   7.31577000 
   9.68034000   0.78914700   4.05220000 
   3.09307000   3.90597000   1.95332000 
  12.33030000   3.33810000   2.29257000 
  11.32850000   6.17797000   0.30305100 
   0.88791600  11.72980000   2.12318000 
   7.18931000  10.85180000  11.02740000 
  12.23940000   8.06793000   5.90786000 
   4.48167000   4.44191000   1.52389000 
   9.61510000   8.53438000   8.57643000 
   2.42477000   2.85159000  10.18220000 
   6.80213000  10.48200000   3.43129000 
   0.52236400   8.28444000  11.67250000 
   2.02209000   9.89377000  11.46580000 
   2.00337000   7.74595000  11.58820000 
   0.19221000   8.27565000   2.97452000 
  11.57800000  10.84040000   0.99114500 
  12.19940000  11.29460000   6.88527000 
   1.57725000   7.95427000   8.08908000 
   8.40287000   0.43225400   1.72647000 
   3.61010000   1.35068000   2.46655000 
   4.63092000   7.47261000   8.38753000 
  12.34680000   2.97273000   0.79861500 
   8.43282000   8.80413000   3.79297000 
   3.97575000  11.87470000   6.12555000 
   1.13599000   1.82547000   8.52893000 
   1.50933000  11.25500000   0.68287900 
   7.98228000   9.94490000   9.46271000 
   0.39653400   6.26685000  10.55500000 
   0.42091600   9.86216000   7.16285000 
   4.46423000  11.62290000   0.83235900 
   3.88830000  12.32740000   2.67201000 
   4.74779000   2.64112000   5.81677000 
   0.22507100   7.04565000   1.85575000 
   5.84901000   9.27019000   7.96329000 
   7.13255000   0.71929600  10.40880000 
   1.15477000   3.68770000  10.23080000 
   4.16792000   9.33701000   2.64147000 
   1.21792000   3.15492000   6.67879000 
   5.85885000   8.98397000   9.51705000 
   2.15976000   7.14938000   2.87585000 
   2.27450000  11.00790000   3.83324000 
   3.66292000   9.68079000   4.13836000 
  12.06820000  10.37620000   3.73012000 
   7.11262000   4.56980000   8.91488000 
   7.33994000   8.60873000   1.66394000 
   6.23923000  10.43790000   6.29014000 
   5.31928000   5.61891000   9.11328000 
  10.70770000   0.91426100   5.17952000 
   6.38292000   7.99431000   4.10770000 
   6.52785000   5.27937000   0.41947000 
   6.61986000   1.93330000   5.91148000 
   1.25659000   5.29530000   6.86235000 
   6.18872000   5.51153000  10.48050000 
   7.77614000   2.34364000   3.18380000 
   1.17599000  11.74110000   4.67414000 
   8.19480000   0.53764000  11.55310000 
   0.08995670   5.22749000   0.80481500 
   4.40531000   4.14548000   5.50083000 
   9.71417000   5.55401000  10.88390000 
   4.36192000   6.37846000   7.23662000 
   6.05308000   1.31227000  11.94290000 
  10.74690000   7.67831000   7.79005000 
   4.68142000   1.21556000   0.27522500 
   1.75936000   7.24420000   5.91786000 
   2.30560000   3.75508000   5.77920000 
  10.65310000   9.79145000   0.25955200 
  10.25700000   0.43121300  11.44070000 
   9.09187000   5.70062000   1.74247000 
   8.66219000   4.70999000   2.95931000 
   8.68080000   5.96788000  11.94860000 
   1.37767000   8.67406000   9.46140000 
   6.36459000   1.43512000   7.99944000 
   9.28590000  11.73850000   8.59629000 
   4.49022000  11.60800000   4.72481000 
   3.17828000  11.35790000  10.35330000 
   4.49494000   2.35210000  10.89370000 
  11.40520000   2.58710000   4.36939000 
   5.92054000   8.70978000   1.25139000 
   7.95782000  10.13670000   5.61425000 
   3.47383000   2.92570000   3.97694000 
   3.42464000  10.34110000  11.91170000 
   4.55818000   3.50874000   9.90111000 
   7.92417000   3.52866000   6.69158000 
   5.37922000  10.85400000   3.06188000 
   7.29546000   2.49450000   8.64169000 
  10.12980000   6.13398000   8.99046000 
   3.09352000   6.15093000   0.18321600 
   1.51592000   8.11300000   4.65471000 
   8.99028000   2.68643000   5.79984000 
  10.94700000   9.94988000   2.64288000 
   7.56287000  12.38910000   2.89860000 
   1.79697000   0.85194500   7.51703000 
   4.85180000   6.68919000   5.15848000 
  10.06130000  11.60290000   0.15672100 
   9.35273000  10.38450000   4.96797000 
   3.41467000   6.30264000   4.93070000 
   2.36494000   5.79086000   7.74649000 
   5.67408000  10.67270000   0.59664800 
   3.10579000   5.92137000   2.82726000 
   6.42863000   3.63583000   2.18484000 
   7.93488000   9.97806000   7.80821000 
   6.38799000   8.45951000   5.64874000 
   3.79776000   7.80797000   2.62252000 
   0.71500600   2.02776000  11.26590000 
   0.17795800   3.50991000   4.58829000 
   3.57689000   7.67853000   0.55922400 
   7.71680000   3.31851000   4.39691000 
  10.93460000   4.88191000   9.50624000 
   5.57329000   0.72836500   6.06389000 
   0.72909200   5.92864000   9.19420000 
   8.57214000   0.64343100   8.51993000 
  12.14780000   0.94072700   7.15707000 
   5.67784000   2.98490000   0.89278000 
   8.63052000   4.51041000   8.61814000 
   0.50060100   0.94766600   0.13359700 
  10.34940000   7.79135000   8.67701000 
   1.54682000   8.13533000   5.58475000 
   5.95213000   5.06109000   9.64745000 
   6.76366000   8.57586000   0.84487200 
   0.46177100  10.66190000   6.58976000 
   3.94581000   0.57982500   1.95422000 
   1.48219000   2.83294000   9.96334000 
   1.31761000  11.32750000   3.82951000 
  10.02420000   5.18225000   9.25457000 
  10.67030000  10.48820000   0.90052300 
  10.71780000   8.45972000  11.35370000 
   8.20245000   0.72839200   2.65059000 
   0.39540300   5.45859000   9.94206000 
   1.33617000   8.40236000  11.16840000 
   8.26082000   8.24815000   2.90446000 
   0.73193400   7.70604000   2.41869000 
   7.02253000   1.56158000   8.76831000 
   4.29770000   8.47079000   2.09128000 
  12.26590000   6.16881000   0.62895400 
  12.23660000   2.87036000   3.94935000 
   3.50152000   4.71941000   1.69125000 
   9.60766000   6.04009000  11.67650000 
   8.51966000  10.08090000   8.61500000 
   5.22750000   1.83282000  12.17740000 
  12.25730000   3.73337000   1.38789000 
   5.80215000   1.61641000   6.37107000 
  11.29680000   8.04837000   5.83838000 
   4.02425000   2.74346000  10.16030000 
   0.74891600  11.68250000   1.17422000 
   6.13917000   7.70562000   4.99664000 
   4.86041000  10.94200000   0.25485300 
  11.42260000   0.38280300   6.78831000 
   3.75365000  10.45060000   3.57747000 
   4.36635000   6.52093000   8.20467000 
   4.04759000   3.24259000   5.49158000 
   6.71077000   9.73117000   6.72471000 
   5.94032000   3.83690000   1.28529000 
   9.48862000   0.25407500   8.54420000 
  11.22210000   9.81941000   3.62377000 
   6.31659000  11.10550000   2.84782000 
   1.10237000   1.64987000   7.60108000 
   2.50827000  10.68140000  11.79330000 
   8.43068000  10.27180000   4.75944000 
   1.44196000   6.06763000   7.53849000 
   5.24943000   9.07149000   8.76246000 
   3.26398000   7.02834000  12.22930000 
   7.82509000   4.01057000   8.35087000 
   6.97599000   6.00780000  12.34920000 
   8.06347000   2.94806000   5.88882000 
   0.20657000   1.69447000  12.04910000 
   2.90947000   6.70731000   3.37515000 
   3.76641000  11.58330000   9.52467000 
   9.68955000   0.10684500  12.19260000 
   1.40818000   3.92903000   6.04197000 
   4.15493000   6.20032000   5.60964000 
   2.64115000  11.87470000   7.36229000 
   7.21324000   9.83070000  10.99510000 
   7.24856000   0.36317900  11.25600000 
   4.76739000  11.98020000   5.57235000 
   7.50332000   3.23721000   3.44064000 
  10.27800000   1.42984000   4.50886000 
   8.91653000   5.63963000   2.67645000 
   1.48371000   8.86664000   8.47469000 
   2.82837000   2.55193000   3.37722000 
  11.96520000  11.36700000   9.99167000 
   0.57318100  11.47970000   9.53533000 
  11.00060000   5.12917000   6.46325000 
  10.80080000   4.04444000   6.21805000 
   8.95950000   2.81749000  11.95320000 
   8.72800000   3.04049000   0.60315000 
