POSCAR file mix2ion
1.0
  12.40000000   0.00000000   0.00000000 
   0.00000000  12.40000000   0.00000000 
   0.00000000   0.00000000  12.40000000 
H O N
   117    59    16 
Cartesian
   7.34207000   8.43399000   5.06496000 
   9.39235000   3.38670000   9.14636000 
   7.18793000   6.67290000   1.16245000 
   1.94691000   9.09158000   3.69098000 
   2.63452000   4.40664000   4.02240000 
  10.95630000   3.23217000   5.52340000 
  10.31450000   2.13825000   7.77814000 
   7.69061000   7.46148000   3.87123000 
   4.26412000   6.20241000   4.36894000 
   7.74784000   5.56171000   7.35280000 
   7.16537000   1.85160000   5.75989000 
   3.75846000   3.48985000   3.55066000 
   7.38128000   6.03981000   5.86137000 
   1.20342000  10.84110000   4.94612000 
   6.67700000   5.67496000   0.15631300 
   5.34592000   7.37718000  10.29310000 
   6.90396000  11.43270000  12.40870000 
   0.56576000   0.02429220   1.77709000 
  11.13520000  11.46760000   0.24173700 
  12.13100000   3.75374000   9.33602000 
   0.75101300   2.01268000  10.12780000 
   1.27545000   7.56690000   8.93215000 
   0.19613200   9.66475000   9.66118000 
   0.90928100   1.65171000   1.80846000 
   2.99156000   8.25384000   2.88192000 
   1.99847000   2.39684000   4.10672000 
   4.73379000   3.89257000   6.93772000 
   4.14781000   4.85494000   8.03522000 
   8.04059000  11.41930000   2.73373000 
  10.71340000   0.76087800   2.75107000 
   0.82544200  11.28310000   0.15864000 
  12.18730000   2.26983000   5.38720000 
   5.74752000   6.76668000   4.26844000 
   8.29495000   0.76594100   5.82569000 
   8.50589000   4.17696000   0.32808400 
   3.94810000  12.11530000  11.04330000 
   8.79797000   3.41429000   2.40408000 
  10.42020000  12.17370000  11.43460000 
   3.65448000   5.51063000  10.07840000 
   9.25706000  11.78960000   3.65231000 
   0.41377800   5.08904000   9.75419000 
   2.99233000   5.93630000   0.31525200 
   1.61229000   9.48450000   6.82100000 
   3.30529000   6.59416000   8.98111000 
   1.78780000   7.48875000   7.51543000 
   2.46423000   0.61341600   5.58781000 
  11.60240000   0.81302000   9.31293000 
   1.04875000   6.28051000  12.08290000 
  10.57360000   5.50046000   5.34541000 
   0.69733100   8.28083000   2.18984000 
   8.86078000   6.02582000   2.44876000 
   9.24628000   4.76698000   5.72157000 
   9.62375000  11.46970000   8.57223000 
   0.97431300   1.33180000   3.76865000 
   9.11427000   7.50295000   2.48353000 
   6.56801000   1.11285000   8.53435000 
  12.33320000   7.74285000   0.75987300 
   3.75580000  12.16850000   5.85943000 
   8.31333000   4.41688000  11.22140000 
   2.11415000  10.93630000   6.77763000 
  11.13310000   3.98832000   0.14383100 
   2.94204000   3.05437000   7.71275000 
   9.69881000   9.11137000   8.27115000 
   3.97236000   6.14641000   2.31605000 
   9.45129000   1.37302000   8.81425000 
   1.43512000   7.80313000   5.02708000 
   7.34993000   6.87179000   9.50386000 
   5.94957000   4.37801000   3.68950000 
   1.08936000  11.46010000   3.47055000 
   1.92705000   0.21019100  11.37890000 
  11.43460000   7.67952000   9.31443000 
   5.95522000   3.15823000   5.24709000 
  11.86500000   5.98514000  12.31590000 
   8.31586000  10.27730000   6.46355000 
   8.77758000   1.53246000   2.94538000 
   6.31633000  12.33640000   5.61797000 
   2.05566000   4.70533000   0.13699500 
   0.17820900   7.51810000   5.82422000 
   0.09821400   1.85843000  12.19220000 
   5.85956000  10.81370000   5.67755000 
   1.12832000   1.95508000   8.62607000 
   4.80474000   6.58987000   1.20145000 
  10.59800000   1.51361000   4.12036000 
   8.38627000   5.82384000   9.41626000 
   2.28268000   3.28084000   1.85102000 
   8.03858000  10.31910000   4.82343000 
  10.43110000   7.87098000   6.19259000 
   2.97956000   1.44201000   7.60851000 
   2.48714000   2.00443000  11.02600000 
  12.29470000   7.45487000  10.57360000 
   0.07046430  10.12170000   1.03288000 
  11.04650000   1.52875000   0.10763400 
   8.36162000  10.60610000   9.06355000 
   3.07461000   5.13193000   5.96956000 
   9.66743000   4.41269000   3.36273000 
   4.75752000   0.27010900   9.82170000 
  11.70490000  11.61640000   9.50489000 
   1.99707000   6.09425000   5.45438000 
  10.51330000   4.93980000   1.17583000 
   8.15456000   2.30477000  10.58100000 
   6.22857000  10.88590000  10.11940000 
   7.96941000   1.51398000   1.62134000 
   6.57995000   2.97218000   3.18766000 
   1.68597000  11.15180000  10.72890000 
   1.92302000   2.72899000   0.34300200 
   6.41552000   7.42649000  11.44470000 
  10.95410000   8.73372000   2.41076000 
   5.64590000   0.69626600   7.26555000 
   0.69623500  10.66360000   8.53978000 
   9.26941000   7.58452000   8.39527000 
  10.76490000   7.90792000   4.62322000 
   7.07130000   1.11685000  10.84510000 
   6.80175000   3.78144000   6.47749000 
   8.34772000  11.73200000   0.17344100 
   6.77729000   9.43115000  10.12580000 
  10.11730000   4.49788000   9.90387000 
   9.68082000   9.60242000   3.01605000 
   7.94617000   1.30950000  10.52780000 
  10.10800000   0.92311300   3.48831000 
   8.01797000   6.50228000   8.87052000 
   6.15922000   3.07281000   6.26111000 
   5.49801000  11.71100000   5.68153000 
   6.31594000   7.65466000  10.49530000 
   5.70668000   0.86524900   8.25317000 
   2.72388000   5.49610000   5.18622000 
   9.35236000   4.29619000   2.46071000 
   7.10850000  10.37550000  10.07170000 
  11.68260000   2.24495000   0.18199900 
   6.54027000   6.59645000   0.43854100 
   2.38506000   2.22973000   7.78795000 
  10.35800000  12.04610000  12.39640000 
   1.32139000   1.84003000   4.51576000 
   3.92379000   4.37390000   7.25447000 
   2.12007000   8.22894000   3.31457000 
  10.04570000   8.19719000   8.14468000 
   0.13369000   6.71920000  12.09290000 
   0.52398800   0.88146300   2.30111000 
  10.13240000   8.69237000   2.99135000 
  10.07130000   4.70280000   5.17789000 
   5.86764000   3.40241000   3.72593000 
   4.09985000   6.04144000   9.37023000 
   9.19711000   4.17165000   9.68397000 
  12.26720000   7.99828000   9.70311000 
   7.53832000  11.64900000   0.73511300 
   8.39498000   6.85668000   2.37569000 
   8.98862000  10.71890000   8.30060000 
   1.14336000   7.60162000   5.91976000 
  11.21890000   2.26233000   5.56578000 
   7.68882000   5.23832000   6.44804000 
   1.48044000  10.70230000   4.02759000 
   3.89950000   6.56097000   1.43942000 
  12.38480000   8.47964000   1.55948000 
   7.73255000  10.00610000   5.73487000 
   8.02805000   2.02608000   2.46087000 
   2.40076000   5.48269000  12.01430000 
   2.04322000   7.29197000   8.44175000 
   1.62350000   3.33529000   1.05964000 
   1.31290000  10.39070000   7.04602000 
  10.95790000   7.44757000   5.46699000 
   1.67296000   1.66677000  11.44040000 
   7.15960000   7.52409000   4.72673000 
  11.02480000  12.36770000   9.49569000 
   2.82351000   3.61453000   3.45464000 
   7.83941000   4.09126000  11.99350000 
   0.34110500   2.05123000   9.25359000 
   7.44723000   1.02194000   5.46371000 
   8.55945000  11.06610000   3.48794000 
   2.91180000   0.11720300   6.26509000 
   0.25993300  11.07830000   0.94151400 
   9.41290000   2.07399000   8.13322000 
   2.30188000  11.63910000  11.32010000 
   5.06241000   6.22913000   3.75671000 
   0.44472600  10.61000000   9.48241000 
   4.89177000  -0.01865830  10.79500000 
  11.98220000   4.71529000   9.48371000 
  10.83590000   4.95468000   0.19670100 
   3.35101000   8.35558000  11.09030000 
   9.07782000   8.89434000  12.23560000 
   5.70168000   9.43366000   2.76670000 
  12.00280000   5.83496000   2.90333000 
  10.69770000  11.42000000   6.16844000 
  10.77010000  10.56510000   5.46279000 
   4.73809000   3.63947000  10.62940000 
   2.86015000   8.87151000  11.93450000 
   9.34384000   7.91886000  11.78410000 
   0.68308100   5.78145000   2.96326000 
   4.65067000   9.42846000   2.40425000 
   4.17949000   0.92895100   1.19957000 
   5.23053000   1.21794000   0.94717200 
   5.45986000   8.03768000   7.41317000 
   5.04437000   7.30340000   6.69697000 
   5.40758000   3.52460000   9.79038000 
