POSCAR file mix2ion
1.0
  12.40000000   0.00000000   0.00000000 
   0.00000000  12.40000000   0.00000000 
   0.00000000   0.00000000  12.40000000 
H O N
   120    59    16 
Cartesian
   9.72062000   6.14679000  10.47620000 
   1.74674000   9.90851000   6.86476000 
   2.77614000   6.55102000   1.70261000 
   6.54234000   2.26500000   0.77118600 
   7.50150000   6.42799000   9.57364000 
   6.64929000   0.94230500   8.19271000 
   6.25715000   5.79865000   8.07670000 
   6.98214000   9.35591000  10.60040000 
   5.31732000   1.96675000   6.37149000 
  11.35070000   8.38506000   9.09908000 
  11.46960000   5.74543000   4.10142000 
   9.82430000   6.64395000   0.66383000 
   5.71233000   4.56747000  10.96730000 
   2.15670000   2.42570000   0.86325100 
  10.02660000   8.35416000   2.39678000 
   4.23941000  11.11900000   0.17565500 
   3.56674000   5.32645000  11.16010000 
   1.80534000   2.31538000   3.96383000 
   0.83714300   8.71735000  10.09860000 
   9.48297000   9.13313000   8.29824000 
  12.13300000  10.67180000   7.42691000 
   1.11149000   9.57069000   2.32173000 
   4.86578000   7.48308000   0.63960000 
  10.77520000   7.49740000   5.77283000 
   7.71181000   5.51236000   7.68627000 
   1.36048000   6.69181000   1.09496000 
   4.09811000  10.22760000   6.61149000 
   5.05898000  12.09820000   8.73187000 
  11.80470000   0.59745900  12.15530000 
   2.10167000   5.24612000  11.67950000 
   8.20018000  11.17740000  11.09860000 
   1.75967000   7.05967000   6.05841000 
  11.71770000  11.85320000   3.47332000 
   9.82602000   4.73668000   8.40167000 
   8.90023000   8.79876000   3.21517000 
  11.22430000  10.32880000   8.58510000 
   5.84671000   0.82025100   4.35167000 
   0.48063200   3.99173000   0.48720500 
   1.42978000   0.71719100   3.85472000 
  11.33120000   4.56488000  11.30990000 
   7.71122000   3.05554000   1.34051000 
   4.85020000   0.43545100  12.10600000 
  10.69520000   3.88272000   1.04310000 
   9.72344000   0.82624300   0.26736400 
  11.44330000   2.95327000  11.72650000 
   6.41838000  11.12050000   0.88865800 
   1.28348000  11.13350000   2.63112000 
  10.93520000  12.28170000   8.55001000 
   4.87578000   2.69140000  11.72210000 
   4.40745000   0.00171634   5.65581000 
   5.38049000   3.82696000   7.71653000 
   1.51446000  10.02990000  10.61060000 
   0.76382300  11.49380000   0.46040000 
   6.85072000   7.97693000   0.33345400 
   7.94385000  11.45990000   1.07339000 
  10.93060000   0.90984900  10.83270000 
   1.90845000  10.27390000   8.40332000 
   1.66927000   4.89997000   1.03161000 
   8.79309000   1.45861000   6.48926000 
   2.07268000   6.58799000   7.52923000 
   4.08373000   2.06086000   0.46543500 
   6.90743000   2.57504000   6.82041000 
   8.40315000   1.12222000   1.15006000 
   5.64306000   8.63724000  10.77760000 
   0.23862400  11.29560000   4.64739000 
   7.52566000  11.52580000   9.69405000 
   9.15923000   3.67221000   7.54846000 
   7.75342000   0.39154600   4.45035000 
   7.26528000   9.85523000   2.43698000 
   1.46298000   0.51153400   0.24005300 
   8.31894000   5.28965000  12.03580000 
   3.62389000   0.95690900   4.86126000 
   3.38727000  12.19710000   9.06695000 
   6.97912000  11.85740000   7.53464000 
   4.35309000   5.13543000   7.71517000 
   4.44527000  10.39560000   4.98246000 
   9.43607000   9.65141000   9.83322000 
   9.31318000   1.53725000   7.98472000 
   8.20097000  11.61720000   5.54235000 
   8.95962000   8.79589000   6.28421000 
   3.94147000   9.34519000   0.71693300 
   3.05839000   8.51420000   3.68902000 
   2.52589000   1.37289000   1.94468000 
   0.87859500   7.79020000  11.85620000 
  11.00500000   6.54643000   1.82836000 
   0.75364600  12.01690000   9.06932000 
   8.99913000   4.64264000   0.85351000 
  11.89950000   7.35088000   0.03906240 
   9.60700000  12.19870000   9.48523000 
   9.72908000  12.00290000   2.34120000 
   9.27202000  12.12530000   4.27915000 
   5.69689000   9.15867000   3.51647000 
   1.37040000   9.54700000   5.08138000 
   7.13230000   6.56755000   1.04509000 
   3.33426000   7.27105000  12.36420000 
   7.31407000   7.21140000  10.94310000 
   3.41552000   8.72961000  10.33720000 
   4.76322000  11.67610000  10.82130000 
   0.06384100   7.60314000   8.41509000 
   6.16482000  10.82430000   6.13500000 
  12.26800000   5.48947000   2.83615000 
   4.57281000   9.73888000   2.63501000 
  11.14840000   6.35526000   9.92181000 
   7.38911000   9.89215000   6.62400000 
  10.00710000  10.55220000   3.10267000 
   1.95731000   7.51798000   3.55930000 
   4.29262000   9.84680000   9.59185000 
   2.66734000   6.43762000   9.56510000 
   4.87662000   4.32964000   9.63851000 
  10.41070000   8.48478000   4.57167000 
  10.67410000   5.44427000   6.34017000 
   1.20501000  12.36190000  10.51400000 
   2.77080000  10.43550000   1.23543000 
   8.00030000   7.75823000   6.95315000 
   6.54321000   1.45284000   3.03224000 
   6.95595000   8.31563000   2.59727000 
   3.61958000   7.38190000   8.80522000 
  10.43740000   4.16031000   2.52133000 
  12.23460000   9.52797000   5.51000000 
  12.22810000   6.01007000   6.29426000 
  11.90960000  11.02860000   8.27924000 
  12.11120000   7.71406000   9.29161000 
   6.75643000  12.39210000   8.36833000 
   5.97942000   2.32328000   7.03025000 
   0.66895300   9.97850000   5.59650000 
   4.44134000   0.93345500   5.37640000 
  11.36690000   5.93946000   5.81351000 
   8.58081000   0.01447140   4.98057000 
   1.25785000  10.43590000   1.91042000 
   6.57248000   8.65070000  11.15380000 
  11.45550000   3.91092000  12.04760000 
   8.03592000  10.82900000  10.19770000 
   1.36844000   6.60892000   6.81813000 
   0.45829600   7.18250000   0.02691240 
   8.31972000   8.72835000   7.06996000 
   1.90365000   6.24162000   1.84024000 
   3.05081000   6.56231000   8.67742000 
   9.87694000   8.88976000   3.14796000 
   7.66748000   6.35828000  10.54430000 
   2.19864000   8.30301000   4.04592000 
   4.99111000   2.10693000   0.07936050 
  10.17350000  11.55130000   3.12330000 
   4.90342000  11.86490000  11.84140000 
   8.81527000   2.05937000   7.24888000 
   5.14081000   4.74198000   8.06236000 
   8.37141000   5.31870000   0.62734600 
   6.62486000   7.40735000   1.16996000 
   4.26676000  11.77640000   9.31392000 
  10.27400000   0.41313100   9.10769000 
   0.80646100  12.26380000  12.26000000 
   4.74177000   9.35009000   3.48116000 
   3.77069000  10.38270000   0.90546300 
   7.11261000   6.27329000   7.83147000 
   4.86795000   4.22262000  10.62730000 
  10.02970000   3.64321000   1.77550000 
   2.38418000  10.15800000   7.53402000 
  11.05090000   1.19376000  11.75760000 
   9.33359000   4.64958000   7.55388000 
   7.19898000   2.29296000   1.53140000 
   4.41207000  10.78050000   5.88116000 
  10.55170000   5.62650000  10.24250000 
   9.05070000   0.39419200   0.89739300 
   3.89144000   7.82087000   0.59464700 
   1.63785000   9.11710000  10.47920000 
  10.55490000   8.50375000   5.57724000 
   7.24415000   9.10708000   3.11490000 
   1.43647000   3.96893000   0.62851600 
  11.39730000   5.68851000   3.15259000 
   7.11462000  10.86330000   6.25394000 
   2.54694000   1.49665000   0.97676800 
  10.05100000   9.28691000   9.07636000 
   1.56403000  12.19050000   9.58784000 
   2.81873000   5.85942000  11.40490000 
   0.24020400  11.89440000   3.86973000 
   2.13499000   1.42458000   3.73487000 
   4.32405000   8.95898000   9.97633000 
   6.64193000   0.88222500   3.84447000 
  10.60900000   7.12380000   1.09704000 
   7.31562000  10.76420000   0.99567000 
  11.24330000  10.37080000  11.74020000 
   4.50449000   7.21397000   5.90207000 
   2.03902000   2.94425000  10.12710000 
   4.55951000   4.58398000   3.69205000 
   1.10123000   1.51305000   7.49520000 
   0.96238400   2.97818000   9.90869000 
   8.01622000   2.59046000  10.49560000 
   4.35304000   5.45256000   3.08652000 
   5.49231000   7.74749000   5.80153000 
   1.92316000   1.93195000   6.89346000 
  11.03610000  10.19830000   0.38219900 
  11.56750000   2.79778000   5.09547000 
  11.02140000   1.89069000   4.85257000 
   7.39164000   5.31656000   4.53182000 
   7.90553000   4.35835000   4.72343000 
   8.37709000   3.36660000   9.81434000 
