POSCAR file mixion
1.0
  12.40000000   0.00000000   0.00000000 
   0.00000000  12.40000000   0.00000000 
   0.00000000   0.00000000  12.40000000 
H O N
   130    64     6 
Cartesian
   0.59204600  11.00530000   9.87912000 
   0.58778900   1.35339000   0.52878300 
   0.90588300   1.55434000   7.23438000 
  11.04570000   0.40531400   6.95141000 
   5.02924000   0.18587100   4.77680000 
   7.35457000   5.98783000   7.86454000 
  10.27640000   5.47870000  10.59720000 
   2.92448000   2.13684000   2.54216000 
  11.66390000   9.56196000   8.08962000 
   8.40986000  10.52770000   2.71640000 
   4.16909000   6.97644000   9.04415000 
   9.05870000  11.75550000  10.66510000 
   5.23676000   0.76696000   7.24138000 
   9.73631000   0.85694400  12.10320000 
  11.77990000  11.88340000   8.32569000 
   6.97361000   9.03512000   1.64359000 
   5.33867000  10.05790000   4.40522000 
   1.34170000   5.42283000   1.26993000 
  10.56530000   6.83720000   2.85861000 
   6.68807000   6.05061000   2.64369000 
   7.65314000   5.95390000   0.59713600 
   5.10060000   8.78321000   0.97907200 
   2.61208000   7.02195000   1.48227000 
   0.72793300  10.39100000  12.19130000 
   4.59022000  12.02460000   2.41757000 
   0.45579500   3.38513000   7.71258000 
   4.63281000   3.12597000   1.52274000 
   9.84130000  10.91710000   3.08691000 
   5.49425000  11.69660000   0.34266800 
   9.29895000  12.15700000   0.72097400 
   3.67834000  12.24340000  12.10210000 
   7.33092000   4.52932000  11.33070000 
   9.22268000  11.87680000   6.23665000 
  11.32830000   4.04151000   8.29874000 
   5.65420000   2.25626000   5.50867000 
   3.61305000   2.97932000   5.04441000 
   9.50795000   2.57150000   8.77700000 
   9.42330000   5.86866000   8.66986000 
   4.53382000   4.81790000   3.12970000 
   3.81393000   3.21758000  10.10860000 
   2.01211000   7.64316000   7.86752000 
   8.14783000   9.64921000   6.91909000 
   1.32272000   5.60360000   3.07403000 
   5.68230000   8.16680000   9.87817000 
  11.28360000   1.56071000   7.98418000 
   9.86962000   8.48821000   7.01859000 
   4.31623000   8.86078000  10.27690000 
  10.91680000  11.36160000   9.53606000 
   1.11567000   9.21000000   4.00107000 
   0.89397800   0.60727500   2.48479000 
   0.37882100   8.25137000   9.07168000 
   6.06119000   9.62227000  12.45800000 
   9.51746000   9.66318000  10.19720000 
  11.93660000  11.76050000   3.41526000 
   6.71006000  10.19520000   5.34821000 
   3.29900000   1.06335000   9.95371000 
   1.91826000   2.51605000   6.42006000 
   2.83570000   7.42444000   6.60190000 
   8.62758000   7.61509000   6.91568000 
   3.73970000   5.36863000   9.27226000 
   5.86559000   3.21206000   4.31436000 
  12.10870000   9.68213000   0.58582200 
   6.65759000   0.41643900   4.89400000 
  11.65930000   2.22073000  11.57020000 
  11.31970000   5.46606000  11.61190000 
   5.49072000   0.78177900   0.68455500 
   5.35649000   8.03973000   5.87746000 
  10.19820000   6.08538000   1.59090000 
   1.46588000   3.38738000   0.26606200 
  10.88890000   6.47255000   8.54727000 
   5.84217000  11.67030000   8.46669000 
   6.55235000  11.16830000  10.66180000 
   0.87375800   7.53866000  10.36900000 
  12.19490000  10.53990000   4.45297000 
   7.45595000  11.39470000  11.84030000 
   2.76198000   4.17532000  12.05120000 
   1.02881000   8.80460000   5.58946000 
   0.19210900  11.84460000   1.57032000 
   9.90231000   9.45752000   1.16905000 
   1.73529000   1.49246000  12.07620000 
   2.85861000   0.61735800   3.22426000 
   0.62174900   6.66034000   6.34730000 
   0.63211100   5.17014000  10.28910000 
   4.77081000   5.99894000   4.29690000 
  11.38080000   7.93486000   4.50452000 
  10.49650000   3.40226000  11.67110000 
   3.25856000   3.90927000   1.35248000 
   8.44886000  11.44670000   9.21658000 
   6.91345000  10.66630000   7.23502000 
   2.40229000   2.36864000   4.27336000 
   1.54982000   9.80543000   1.93443000 
   7.29376000   6.85808000  11.17860000 
  10.03780000   7.35747000   5.10209000 
   8.83847000   0.71558300   4.55390000 
   5.42169000   6.60615000   6.42213000 
  11.63010000   6.17951000   5.75807000 
   7.71181000   8.22391000  10.63090000 
   7.33989000   6.96528000   9.07571000 
   2.61030000   1.93697000   8.69239000 
   7.79647000   4.01896000   2.81435000 
  10.58560000   2.61209000   9.81608000 
   5.93584000   4.40670000   6.62682000 
   7.13757000   9.05284000   3.30615000 
   1.19466000   5.54231000  11.68600000 
   4.62589000   1.25594000   8.57450000 
  10.45110000  11.87060000   5.18526000 
  10.61780000   8.00220000   1.14402000 
   3.44977000  11.07800000   2.83255000 
   1.44276000   9.61475000  10.18920000 
   7.59415000   7.24665000   2.17945000 
   7.29543000   3.53154000  10.12870000 
   0.10674500   6.19685000   1.59876000 
   0.89770700   5.68123000   4.68084000 
   6.94894000   2.68551000   1.46515000 
   7.35105000   3.14718000   7.90849000 
   6.96682000   1.67394000   8.36044000 
   8.48126000   0.07339070   3.23345000 
   8.87743000   5.69641000  11.99120000 
  -0.09646180   5.02494000   7.20481000 
   5.39542000   5.14729000   7.92266000 
   9.98225000   8.80081000  11.43580000 
   2.48220000  11.66590000  11.10280000 
   1.91397000   4.37919000   4.29160000 
  10.80660000   8.56156000   9.00444000 
   5.01344000   3.85688000  10.72340000 
   7.89957000   2.42701000   3.36957000 
   6.46932000   2.65152000  12.28380000 
   5.58114000  10.21370000   9.11122000 
   4.04767000   6.87499000   2.08955000 
   2.87570000   9.01894000   2.11872000 
   2.98356000   0.03530360  11.41920000 
   9.13693000  11.17100000   9.88394000 
   9.13192000  11.10040000   2.47196000 
  11.53980000  11.19290000   4.13369000 
   4.82438000   8.56790000   9.50905000 
   4.10876000   6.02581000   8.64158000 
   9.33105000  12.36680000  12.19460000 
   1.60347000   2.25936000   7.36740000 
  10.85330000   6.68292000   1.93504000 
   3.78406000   3.39166000   2.01009000 
   0.85227200   1.81402000  12.12880000 
   7.33042000   3.17775000   3.07535000 
   7.00466000   7.54472000  10.47790000 
   0.46036900  10.22700000   0.75867100 
  10.68910000   2.44293000  11.50070000 
   8.12824000   0.72381000   3.90848000 
   9.86902000   0.03732880   5.79558000 
   1.03852000   6.11292000   1.85509000 
   4.14439000  11.66280000   3.20879000 
   6.46516000   2.20975000   0.73752200 
   0.07284890   5.93012000   6.09270000 
  10.75260000   7.10299000   4.44652000 
   5.05822000   7.10720000   5.71768000 
   7.59586000   6.28665000   2.28025000 
   0.54858500   5.78959000  10.99760000 
   1.19224000   8.10259000   9.65007000 
   2.60575000   3.00537000   4.98569000 
   5.78364000   0.45384100   5.31633000 
   6.13294000   4.99794000   7.35435000 
  11.76740000  11.11490000   9.03707000 
   5.43093000   0.75328400   8.17860000 
   0.07462240   0.27408700   2.11734000 
   3.48967000   7.44536000   1.49853000 
  10.40160000   5.07896000  11.49480000 
   2.15094000   9.50084000   2.66324000 
   7.89165000   6.75426000   8.21343000 
  12.30130000   4.18704000   7.91713000 
   1.90448000   7.69200000   6.92154000 
   5.54919000   3.19027000   5.25217000 
   3.42655000   1.77951000   9.32029000 
   7.66474000  10.46460000   6.65327000 
   4.01905000   3.95513000  10.72770000 
   6.75934000   3.71050000  10.92930000 
   0.49303900   9.11597000   4.81494000 
   9.21569000   8.19485000   6.37663000 
  10.54450000   8.90134000   0.68076000 
   7.58737000   9.06043000   2.40666000 
   6.67127000  10.96740000  11.60220000 
   2.06005000   4.25769000   0.30504900 
  10.41510000   2.78542000   8.86875000 
   7.87840000   5.80656000  12.00430000 
   5.91846000   8.74987000   0.42700800 
   4.91595000   5.70492000   3.35707000 
   1.25668000  10.54320000  10.58030000 
   1.63831000   5.30470000   4.05998000 
   6.24063000  10.94010000   8.98414000 
  11.41090000   8.61832000   8.21372000 
  10.40990000   5.70183000   8.79703000 
   6.23790000   9.66605000   4.61431000 
   7.72366000   2.33924000   8.34456000 
   9.72202000   8.72585000  10.47360000 
   2.38168000   1.43597000   2.93632000 
   4.95668000  12.36990000   0.79602800 
  11.67250000   0.72827000   7.58762000 
   8.63114000   5.02317000   5.79817000 
   8.91684000   3.99367000   5.50881000 
  11.14350000   3.15637000   3.03665000 
  11.98860000   3.71966000   2.60847000 
   2.61870000  10.73250000   7.17677000 
   3.63303000  10.30820000   7.16485000 
