variable        NSTEPS          equal 7500000
variable        THERMO_FREQ     equal 1000
variable        DUMP_FREQ       equal 1000
variable        TEMP            equal 330.0000
variable       PRES             equal 1.000000
variable        TAU_T           equal 0.100000
variable       TAU_P            equal 1.000000

echo			screen

units           metal
boundary        p p p
atom_style      atomic

#read_data		D30L55.data
read_restart	../5-12.5ns_4/12500000.comp

neighbor        1.0 bin

mass            1 1.008
mass            2 15.999
mass            3 14.007

#group		nitrogen id 1:240

pair_style      deepmd frozen_model_compressed.pb 
pair_coeff      * *

compute         1 all centroid/stress/atom NULL virial
compute         2 all centroid/stress/atom NULL ke
compute         3 all reduce sum c_1[1] c_1[2] c_1[3]
compute         4 all reduce sum c_2[1] c_2[2] c_2[3]
variable        mypxx equal (c_3[1]-c_4[1])/vol
variable        mypyy equal (c_3[2]-c_4[2])/vol
variable        mypzz equal (c_3[3]-c_4[3])/vol

thermo_style    custom step temp density pe ke etotal vol lx ly lz press pxx pyy pzz v_mypxx v_mypyy v_mypzz
thermo          ${THERMO_FREQ}

#velocity 		all create ${TEMP} 20221016 rot yes mom yes dist gaussian

fix            1 all npt temp ${TEMP} ${TEMP} ${TAU_T} iso ${PRES} ${PRES} ${TAU_P}
#fix             1 all nvt temp ${TEMP} ${TEMP} ${TAU_T}

#fix                    shiftcore  nitrogen  recenter  0.5  0.5  0.5 shift  all  units  fraction

dump            bubble2  all custom ${DUMP_FREQ}   bubble_1k.lammpstrj    id type x y z c_1[1] c_2[1] c_1[2] c_2[2] c_1[3] c_2[3]
dump            bubble3  all custom 100000         bubble_10w.lammpstrj   id type x y z c_1[1] c_2[1] c_1[2] c_2[2] c_1[3] c_2[3]
dump_modify	bubble2 sort id
dump_modify	bubble3 sort id

restart			200000 restart.*.cont

timestep        0.001
#reset_timestep 200000
run             ${NSTEPS}

write_restart	*.comp
write_data      *.data
