POSCAR file mix2ion
1.0
  12.40000000   0.00000000   0.00000000 
   0.00000000  12.40000000   0.00000000 
   0.00000000   0.00000000  12.40000000 
H O N
   119    59    16 
Cartesian
   1.92984000   9.89210000  11.14980000 
   7.14856000   0.97456700   7.66494000 
   8.46097000   2.43784000   6.29254000 
   3.98348000   0.11715900  12.07460000 
   6.70364000   2.40578000   2.97006000 
   3.47713000   9.56600000  11.25000000 
   8.36086000   3.54913000   5.08344000 
   7.75929000   2.36903000  12.36800000 
   4.64783000   4.47542000   5.81335000 
   4.28361000   3.87752000  11.01410000 
   6.33715000   6.36933000   7.00808000 
   6.20248000   4.79951000   9.65736000 
   3.86690000   1.27354000   8.19862000 
   6.36773000   6.60878000   1.59960000 
   0.39650600   9.19756000   1.15978000 
   2.05244000   6.23526000  10.17350000 
   5.27273000   8.04358000   0.08558740 
  11.50690000   7.31835000   1.09375000 
   5.30199000   9.11819000  11.24800000 
   6.29964000  10.77200000   4.89766000 
  12.22200000   9.25038000  11.28360000 
   5.95343000   3.53590000   4.44933000 
   5.03222000   1.11147000   1.67439000 
  10.54820000   9.76797000   6.90430000 
  11.16430000   1.41678000   1.24238000 
   0.45743800   8.39979000   5.17984000 
   4.67932000   6.69276000  10.06320000 
   5.43780000  10.02430000   5.88369000 
   8.46901000  11.88150000   3.85248000 
   2.00790000   4.18395000   0.76420100 
   3.69613000   6.32659000   6.69370000 
  10.59050000   8.10863000  11.03910000 
   8.96059000   5.71472000   7.34345000 
   7.51141000   0.06208100  11.27630000 
  10.90170000   5.92312000   8.29503000 
   0.79751700   9.83756000   4.71505000 
   6.98405000   6.75121000   3.98650000 
   2.66917000   9.39566000   9.45220000 
   6.83313000   4.61954000   3.89903000 
  11.90480000   8.44845000   6.91748000 
   2.88521000   3.10834000   9.52254000 
   5.75273000   6.25593000  11.05110000 
   0.45919600   3.04020000   1.59914000 
  10.93030000   0.41479500   0.24558100 
   3.30660000   7.94795000   0.72333500 
   0.67418100   8.85846000   2.64985000 
   7.13858000   0.22844700   3.60909000 
   8.33946000   5.36012000  11.77100000 
   9.76527000   4.31242000   7.32061000 
   3.49878000   0.93014500   1.84298000 
   5.41313000   6.73175000   3.46841000 
   6.29043000   3.81944000   0.05264730 
   0.43536400   4.50814000   8.10328000 
   7.33634000   0.20992400   9.74200000 
   6.80841000   8.90864000   9.77749000 
   8.80276000   8.23363000   4.34201000 
   8.76187000   1.17440000   0.55481300 
   0.21533500   5.89363000  10.39310000 
   7.04540000   6.74933000   0.21061200 
   3.61660000   3.90642000   4.84209000 
  10.23090000   8.84410000   5.72870000 
   8.38709000   6.70685000  10.78720000 
   7.17786000   1.63381000   1.63390000 
   3.13057000   5.94088000   1.39815000 
   2.33513000   1.16400000  11.05040000 
   2.70677000   7.25318000   9.11479000 
  10.14720000  10.18730000   3.55442000 
   0.66983100   3.78910000   6.58948000 
  10.19070000  12.32370000   2.47498000 
   5.21912000   0.77069600   8.51069000 
   1.16805000   2.87319000   4.64194000 
  10.48110000  12.18420000   6.73068000 
   4.60359000  11.23850000   7.59281000 
   0.83076000   4.36503000  12.17490000 
   0.07188740   6.54761000   8.31245000 
   0.95359700   8.72584000   7.67922000 
  10.44720000  10.44650000  10.00900000 
   9.96053000  11.60750000   8.10896000 
   4.08119000   0.54534600   9.77992000 
   7.59679000   7.12906000   6.34973000 
  10.47260000   0.18357300   4.04527000 
  10.88180000   7.93396000   9.50460000 
   2.57406000   4.63007000   3.26753000 
   0.28534500   0.66267700  10.91010000 
   4.31458000   2.81629000  12.13720000 
  11.33550000  12.26860000  10.52980000 
  12.42930000  10.83090000  11.63950000 
   9.24834000  11.56330000  10.18570000 
   1.69051000   2.04625000   5.90069000 
   4.38482000   5.52078000   7.70486000 
  12.03560000   3.03821000   2.92007000 
   5.38557000  10.14630000   8.52540000 
   7.37036000   7.12776000   8.67910000 
  12.27540000   6.17521000  11.84020000 
   2.74528000   7.30531000   5.25853000 
   2.22838000   2.72094000   7.54418000 
  11.61480000   1.69972000   5.34873000 
   3.87077000   4.74067000   0.65464300 
   7.28533000   8.50068000   4.93138000 
   2.03086000   7.82615000   1.64877000 
   6.68385000  10.40260000  10.35350000 
   1.52287000   7.14151000   6.27366000 
   3.48400000   9.06968000   8.10812000 
   8.45785000   8.20092000   8.89001000 
  10.08160000   1.76354000   5.71959000 
   3.66440000   7.68746000   3.06340000 
  10.28950000   6.65535000   0.14393400 
  11.12170000   8.96539000   3.67965000 
   3.52595000   2.67249000   6.65652000 
   1.66304000   2.48792000  11.42580000 
   3.28877000   4.64869000   9.30666000 
   6.84670000   2.14013000   8.81184000 
   7.25269000   4.04937000  11.21750000 
   8.64204000   0.15459500   6.56235000 
   7.73080000   0.40897300   5.47850000 
   1.94666000   5.19634000   4.61675000 
   3.33279000  11.74070000  10.90890000 
   7.53806000   4.57286000   8.83496000 
   4.22795000   8.61039000   4.10994000 
   7.58947000  11.87330000  10.47380000 
   0.97917300   3.87044000   7.56404000 
   7.29725000   3.87238000  12.23280000 
  10.20150000  11.88070000   3.35662000 
   0.35363400   9.87794000  11.79380000 
   4.20890000   0.91628000   1.21198000 
   4.22738000   0.53026600   8.72925000 
   6.23308000   9.63311000  10.03270000 
   7.55600000  11.83560000   4.08801000 
   1.77964000   1.87017000  10.71500000 
   6.05912000   9.91453000   5.16030000 
   9.82493000  11.54350000   7.09544000 
   7.33944000   6.48495000   7.04256000 
   1.18918000   3.73713000   0.45767000 
   3.61473000   3.74563000   9.51881000 
   4.58764000   6.00518000   6.95888000 
   2.57751000   6.29577000   9.36064000 
   0.62783200   5.88070000  11.30490000 
  10.78700000   1.15540000   5.47535000 
   0.48794600   8.20237000   7.00674000 
   6.27348000   6.95351000   0.72524200 
   2.76795000  10.13100000  10.80440000 
  10.44250000   8.81486000   6.72463000 
   8.57698000   6.30439000  11.65020000 
   9.74354000   5.23553000   7.67117000 
   0.52353000   8.45089000   1.76814000 
   2.91784000   2.10438000   7.18004000 
   3.76383000   0.22764000  11.11280000 
   7.84214000   1.38633000   0.18199600 
  10.20860000   9.21099000   3.69252000 
   0.60895100   8.97424000   4.38983000 
  10.13660000  11.38690000   9.73171000 
   4.94697000  10.29150000   7.63542000 
   4.73257000   8.70669000  11.95700000 
  10.49570000   0.79500800   0.99712600 
   8.92017000   3.23084000   5.85056000 
   6.54062000   1.55600000   2.41432000 
   6.74721000   1.18770000   8.60306000 
  11.95880000   0.06779220  11.26000000 
   7.84498000   7.60486000   9.37544000 
   6.32235000   6.47491000   3.27794000 
   7.85153000   0.80069600   6.36129000 
  11.86190000   5.94595000   8.83962000 
   2.20979000   6.63710000   5.76437000 
   7.97924000   7.81525000   4.75368000 
   2.23669000   4.36656000   4.13833000 
   4.64618000   3.67121000  11.90540000 
   6.88512000   4.11423000   9.35794000 
   5.50461000   6.13462000  10.10690000 
   3.92981000   7.70183000   4.04528000 
   2.99987000   7.54690000   1.58388000 
  10.67820000   8.62918000  10.19210000 
  12.36120000   2.41066000   2.23886000 
   2.66983000   8.78970000   8.62815000 
  11.18250000   7.00815000   0.21141000 
   6.84659000   3.71601000   4.05959000 
   0.92882500   2.20203000   5.27768000 
   4.43489000   3.61868000   5.36867000 
   3.31589000   4.89759000   1.46445000 
  10.96480000   2.24957000   9.30001000 
   4.96759000  10.21130000   2.43616000 
   0.51152400  12.06990000   7.81075000 
   4.84106000   0.96915400   5.52452000 
   9.06651000   9.97253000   0.37458100 
   1.23409000  11.78740000   8.60595000 
   4.35276000   0.33318200   4.76666000 
  11.46860000   4.93337000   4.76486000 
   5.65824000  10.56730000   1.65227000 
  10.13820000  10.10080000   0.67629000 
  11.21270000   2.76393000  10.26540000 
   1.53962000  12.00550000   3.68444000 
   1.35781000  11.60060000   2.67780000 
   9.67726000   4.12341000   2.08273000 
  10.23390000   5.10164000   1.99682000 
  11.57010000   6.00968000   4.52184000 
