POSCAR file mixion
1.0
  12.40000000   0.00000000   0.00000000 
   0.00000000  12.40000000   0.00000000 
   0.00000000   0.00000000  12.40000000 
H O N
   129    64     6 
Cartesian
   0.63839000   5.81113000   4.49272000 
   5.07779000   9.13859000   3.31553000 
   5.99961000  12.18110000   5.28334000 
   2.97830000   8.94121000  11.95470000 
   4.51720000   0.01047050   5.52979000 
   7.33396000   7.07570000   3.03797000 
   4.67985000  11.62310000  10.00540000 
   6.44468000   1.73179000  11.97610000 
   0.60146200  10.22840000  10.11580000 
  10.40860000  10.80920000   2.31758000 
   3.83420000   9.02027000   0.90883800 
  10.03920000   8.56950000   7.65786000 
  10.62270000   8.32217000   2.60613000 
  12.03400000   6.30131000   3.62452000 
   1.92167000   3.34922000   3.07475000 
  12.04040000   1.21889000   6.40882000 
   0.30695700   6.60682000  11.00430000 
   3.58838000   9.27479000   3.81654000 
   7.35847000   5.13424000   3.50548000 
   2.84377000   2.34398000   9.92158000 
   1.78816000   9.07309000   9.54988000 
   2.31340000   1.06632000   8.34342000 
   6.41354000  12.35460000  10.38240000 
   9.85751000  12.19800000   2.34074000 
   3.76991000  10.59650000   6.49904000 
   2.00126000   4.19082000   7.01319000 
   0.23962900  10.76920000   4.44217000 
   5.28967000   6.35999000   6.12600000 
   2.25658000   5.72561000  10.53230000 
   0.55156600   8.47379000  10.43450000 
   2.48171000  10.84460000   4.91710000 
   5.84459000   3.43375000   8.14274000 
   8.70586000   3.62159000   2.84306000 
   0.19573100  11.86770000  11.35350000 
   9.40459000  10.84650000   6.66539000 
  10.78860000   4.74830000   8.76360000 
   2.13248000  11.36410000   3.43907000 
   7.89177000  11.62190000   4.64595000 
   0.47355000   4.06281000   7.65061000 
   6.86349000   7.06386000  11.61130000 
   9.84280000   5.71246000   2.26824000 
   6.00484000  12.23640000   1.73253000 
  11.28820000  11.90090000   7.64224000 
   5.41550000   4.93338000   9.39962000 
   4.95931000   3.24812000   0.54699600 
  10.89320000  10.58310000   6.20882000 
   2.43053000   3.19424000   8.69338000 
   5.50122000   4.05786000  10.74760000 
   3.57359000   0.26763200   2.30468000 
   4.03268000   8.11400000  10.10550000 
  12.34780000   7.37892000   1.87124000 
   2.64069000   0.63266100  11.55880000 
   9.18269000   8.72743000   3.09166000 
   6.50988000  10.01050000   9.29794000 
  11.84360000  12.23110000   0.88205600 
   3.96745000   3.65031000   2.45572000 
  10.72950000   6.99744000  10.45720000 
   9.93231000   0.03652920  11.99760000 
  10.99580000   2.42042000   1.81887000 
   1.64128000   4.08273000   1.77168000 
  11.87940000   1.49124000   4.00147000 
   0.76361700   4.44196000  11.92700000 
   1.23482000  12.33130000   8.09533000 
   6.53120000  10.78590000   1.15473000 
   3.83125000   4.50761000   5.49850000 
   3.15697000  11.87590000   9.57151000 
   2.23552000   6.94111000   6.10178000 
   4.51454000   6.98767000   4.81517000 
   7.83375000   8.44990000   6.64427000 
   1.39805000   8.89055000   3.25493000 
   7.17181000   5.06979000  11.13490000 
   9.84188000   1.20878000  10.22050000 
   4.63004000   9.07837000   7.87205000 
  12.09190000   7.42861000  12.20210000 
   3.62561000   8.14074000   6.94592000 
   1.90836000   8.55042000   1.77986000 
   3.67737000   5.94389000   8.12264000 
   6.34222000   8.65510000   6.21170000 
   1.34445000   7.72100000   6.99050000 
   6.79153000   0.22559500   0.20427300 
   8.38122000   1.12902000   3.32057000 
   1.69276000   1.83706000  11.83010000 
   9.11777000   1.53540000   8.78559000 
   2.21342000   6.82917000   3.68716000 
   1.42984000   5.01401000   9.35937000 
   5.01239000   1.66915000   2.40524000 
  11.10270000   0.81999900   8.57309000 
   6.42958000   8.39255000  10.77950000 
   4.15140000   3.56451000   6.66735000 
   0.82715600   0.60031200   1.11068000 
  12.06130000   5.97103000   1.46318000 
   5.19727000   0.48717100   3.45458000 
   8.61206000   0.90086100  11.91170000 
  12.30520000  11.81280000   9.66602000 
  11.84180000   8.85362000   5.77514000 
   9.23870000   3.39027000   4.26281000 
   7.43057000   8.03871000   4.27809000 
   7.61162000   0.20407100   7.01991000 
  11.24410000  10.13280000   4.16099000 
   2.33966000   0.99432800   3.01734000 
  11.79100000   7.38146000   5.73903000 
   6.83079000   1.59778000   7.33944000 
   7.81541000  12.37910000   2.45783000 
  10.34250000   2.48608000   0.43067400 
   6.82743000  12.21240000   8.95490000 
   6.18079000   8.69931000   0.73430600 
   9.43090000   7.41508000   8.64892000 
   6.03090000   5.74495000   4.21774000 
  11.54060000   0.51481300   2.88411000 
   2.87302000  11.83720000   6.88049000 
   7.97632000   5.31018000  -0.01325880 
  11.31390000   2.40809000   5.61213000 
   4.10117000   2.49451000  11.93010000 
   7.55059000  10.32360000   5.48829000 
   2.47343000   5.35154000   3.72725000 
  12.17540000   3.87710000   0.56009000 
  10.89300000   4.71657000   5.37228000 
  10.39020000   4.16659000   6.79146000 
   4.72079000   7.03851000   8.38323000 
   9.36324000   6.22761000  10.45650000 
   1.30215000   1.88460000   4.69790000 
  10.51760000   3.22461000   8.87561000 
   2.57535000   2.68030000   5.03267000 
   5.44579000   4.08358000   2.82120000 
   6.84740000   8.74153000   2.13624000 
   9.86129000   4.30688000   1.63222000 
   3.63768000   9.76694000   9.93452000 
   7.47340000   8.94854000   8.61637000 
   4.71236000   2.32917000   8.15289000 
  12.00650000   5.92042000   4.51113000 
   2.39244000   6.13115000   4.32967000 
   2.22653000   0.09874870   8.18001000 
  10.32510000   4.01408000   5.79562000 
   1.35428000   5.38722000  10.27830000 
  10.63260000  11.69790000   2.03321000 
   2.64613000   1.55653000  11.67410000 
   1.38912000   4.44028000   7.76050000 
   9.59502000   0.96108900  11.81920000 
   2.58941000   0.19487000   2.51770000 
   7.71987000   7.94711000   3.32131000 
  12.15520000   7.42381000  11.25000000 
   0.15971000   0.22034400   0.39328000 
  11.75940000  10.55430000   4.87026000 
   3.48116000  11.49270000   6.18175000 
   1.29742000   8.31112000   2.48455000 
  11.75560000   0.15106700   8.10965000 
   0.82026900   9.19348000   9.75985000 
   6.90794000   0.92495300  11.83920000 
   4.88457000   6.22401000   5.27343000 
   5.07457000   0.68657700   2.47605000 
   5.22398000   0.21659400   4.88467000 
   5.44452000   2.73271000   7.59467000 
   6.74962000  11.77390000   1.27800000 
   0.54478500   4.50567000   0.47181700 
   2.20679000   7.31763000   7.03274000 
   7.81607000   5.66516000  11.51630000 
   6.56936000   8.00531000  11.63870000 
  11.96500000   1.32773000   3.00429000 
   3.40151000   3.80574000   6.04721000 
   4.46011000   8.75854000   6.98708000 
   4.40037000   8.81578000   3.98162000 
   3.73711000  11.36850000  10.14320000 
  11.62900000   6.69712000   1.86757000 
   0.41808200  11.55100000  10.43900000 
   2.97069000   8.86304000   0.54415600 
   2.27083000   4.08761000   2.51163000 
   6.14146000   9.17384000   1.60281000 
  10.10750000   9.06421000   2.97304000 
   9.20857000   8.11187000   7.91529000 
   4.57912000   6.11453000   8.42367000 
  11.98290000   8.05719000   6.38649000 
  10.05540000   6.54080000   9.86510000 
   2.99262000   2.45374000   8.94862000 
  11.12110000   3.88245000   8.51564000 
   4.87556000   3.37408000   2.35966000 
   6.45244000   5.45011000   3.39440000 
   9.94523000   1.54481000   9.29188000 
   8.37144000   0.18156100   3.21486000 
   1.90917000  10.67040000   4.13642000 
   6.62026000   9.09190000   9.03952000 
   3.30148000   8.77494000   9.92923000 
   7.47573000   0.90747000   7.66910000 
  11.96590000   1.64092000   5.55872000 
   7.66042000  11.29360000   5.55703000 
   9.22318000   5.09027000   1.76786000 
   8.53469000   3.04920000   3.62330000 
   4.99214000   2.97613000  11.96220000 
   6.30552000  11.71430000   9.65458000 
  10.29110000  10.63300000   7.00434000 
   2.12543000   2.28616000   4.29080000 
  10.65010000   3.04733000   1.11484000 
   5.95651000   4.30659000   9.94785000 
   7.22655000   8.58242000   5.86108000 
   4.63631000   6.59939000   1.37812000 
   3.58375000   6.33826000   1.61931000 
   7.22423000   5.60154000   7.42654000 
   8.24537000   5.19201000   7.50955000 
   9.86038000  10.34820000  11.01570000 
   9.56345000  10.27980000   9.93182000 
