POSCAR file mix2ion
1.0
  12.40000000   0.00000000   0.00000000 
   0.00000000  12.40000000   0.00000000 
   0.00000000   0.00000000  12.40000000 
H O N
   116    59    16 
Cartesian
   8.07454000   3.36638000  10.25520000 
  10.26310000  10.84520000   1.90804000 
   7.68065000   3.89078000   0.74658900 
   9.45951000   3.06273000   9.55746000 
   1.14189000  10.73740000   2.64628000 
   5.34137000   7.82653000   3.04058000 
  10.53340000  12.38340000   3.97198000 
   6.38009000   6.38528000  11.92410000 
   5.47509000   8.36206000   5.35665000 
   6.79774000   9.81286000  11.09340000 
  10.63840000   1.08244000   2.79897000 
  12.14250000   3.76544000   6.13309000 
   2.38923000   5.20059000   9.93716000 
   7.39273000  11.54700000   0.72905600 
   2.61845000  10.72080000   0.08422410 
   0.34693300   5.27864000   6.05841000 
   2.52727000   6.04688000   6.32907000 
   8.54945000   8.77665000   4.36010000 
   9.37498000   8.99317000   2.46462000 
  10.99010000   5.24416000   7.82983000 
   7.73132000   2.09574000   5.51973000 
   7.16765000   5.91580000   6.65749000 
   3.37982000   4.53853000   7.77925000 
  11.58760000   9.67523000  10.50650000 
   8.33447000   9.50500000  10.80380000 
   6.04707000   5.69859000   7.85936000 
  11.46610000   9.86414000   2.21268000 
   4.72232000   5.61718000   6.39367000 
   8.14365000   0.14895100   1.61342000 
   8.75227000   2.19284000  11.95450000 
   6.23749000   4.43401000   2.77030000 
   9.94403000   5.20755000   9.03085000 
   8.69998000   2.94326000   4.64705000 
   4.31638000   4.55611000   8.96396000 
   8.80387000   0.62068300  12.08230000 
   7.31131000   7.78982000  10.36080000 
   7.26747000   3.11747000   7.94507000 
   1.41304000   3.13306000   0.81614300 
   9.45441000   5.30223000   5.10713000 
   6.49309000   2.41789000   3.31718000 
   6.09544000   7.62672000   1.13690000 
   6.37617000   5.66830000   9.59400000 
   7.24075000   2.79539000   1.59090000 
   0.24737300   5.59565000  11.23080000 
   4.09371000   4.75562000   5.25272000 
   8.31766000   6.53322000  10.69470000 
   7.14770000   8.38068000   2.04420000 
   3.14787000   2.31771000   9.37228000 
   6.12487000   9.89844000   0.76701900 
   0.64617800   9.50802000  11.00100000 
  10.52600000   6.13060000  11.85130000 
   1.22127000   9.36129000   3.29220000 
   9.49455000  10.62110000   5.49381000 
   5.82552000   7.70801000   6.70745000 
   8.89292000   7.50900000   6.07781000 
  11.48770000   2.94673000   1.71352000 
   2.58357000   3.25197000   3.97134000 
  11.59700000  11.93600000   6.39554000 
   2.75458000   6.10997000   1.54182000 
   1.12729000   4.41355000   1.83808000 
   9.71018000   5.36311000   2.84876000 
   2.75717000   2.14735000  11.32680000 
   9.83324000   2.87188000   1.72766000 
   5.13885000  10.92590000  12.38610000 
   2.25233000   8.46821000   0.17630000 
   7.78320000   9.38883000   5.73054000 
   0.37399800   8.36142000   9.07044000 
   2.88026000   6.36695000  11.73210000 
   0.50980800   2.45923000   4.84656000 
   6.15868000   1.92377000  10.18320000 
   6.84620000  10.32430000   8.44653000 
   5.40402000   4.95821000   0.07997390 
   3.41579000  11.90150000   0.64195100 
   3.58044000   7.48479000   4.09944000 
   6.11650000   5.81156000   2.06134000 
   5.50117000   6.49498000   3.85663000 
   2.33894000   6.54160000   3.02963000 
   3.40058000   3.10361000   0.01392180 
   5.91206000   3.13604000  11.22890000 
   2.20668000   7.41548000   4.84506000 
  11.30440000   0.11586400   9.57145000 
   1.11500000   9.31585000   1.00556000 
   8.37928000   5.56349000   2.30455000 
   4.68313000   3.48721000   3.29368000 
   3.35046000   1.46281000   1.21788000 
   1.50676000   6.88907000   7.19698000 
   4.55593000   1.61188000   2.21890000 
   1.07330000  11.31230000   9.36473000 
  10.23630000   8.42337000  11.84100000 
  10.74070000   4.56017000   4.93485000 
  12.26150000   0.85716200   6.23785000 
   4.81378000   0.41347000   9.70921000 
   9.00497000   7.42991000   2.60871000 
   8.00985000  12.03090000   7.83206000 
   6.13590000   4.05495000   9.45854000 
  11.60060000   1.70675000   4.56941000 
   9.35499000  11.97700000   6.39752000 
   5.55850000   3.42640000   0.92892500 
  10.75710000   9.70262000  12.36600000 
   3.50081000   4.62944000   3.07848000 
   2.46430000   0.86339000   9.48237000 
   6.00945000  10.05700000   7.28128000 
   2.08069000   0.58568500   3.27616000 
   4.24373000   6.63264000   0.05166600 
   0.94585400  12.26770000   8.10761000 
   1.49842000   6.59244000   9.74041000 
   0.65640000   0.24656600   3.26130000 
   1.58714000   2.71875000   2.87822000 
   9.30311000   0.31175800   8.50118000 
  12.01720000   6.92304000   8.98223000 
  12.29020000   4.67558000   0.09962550 
   5.72953000  12.04360000   8.78561000 
   9.54715000   6.51848000   0.49008900 
  10.04630000   0.75049500  10.56190000 
   9.50785000   6.51681000   7.14548000 
   7.46965000   1.56616000   7.80337000 
   6.25885000   6.13296000   6.97551000 
   0.40421300   7.42364000   8.70832000 
   8.28066000  11.83110000   1.05893000 
  11.90770000   5.18049000  11.73750000 
  10.55380000   9.93141000   1.89560000 
   1.99240000   5.98501000  10.39290000 
   1.81928000   2.54552000   3.85433000 
   2.36918000   5.76440000   2.35657000 
  12.05510000   4.68351000   6.39671000 
   3.45092000   4.23633000   8.72460000 
   1.47050000  12.36790000   2.88034000 
   5.13319000   3.87585000   0.13645100 
   2.63406000   2.46204000  12.33260000 
   5.62748000   8.57601000   6.29494000 
   8.61276000   9.05575000   5.30451000 
   6.55139000   2.75942000  10.53670000 
   5.81271000   6.33446000   0.36694700 
   6.53527000   5.35689000   2.83106000 
   9.21569000   1.40000000  11.56850000 
   9.89052000   6.91315000  12.03830000 
   1.51753000   9.05957000   0.11654700 
   1.44027000  12.12880000   8.95153000 
   2.57238000   7.61673000   3.98484000 
   6.58464000  10.80680000   7.66516000 
   6.06909000  10.60390000   0.05582610 
   3.15477000   1.46516000   9.84115000 
   8.92844000   3.77279000   9.83982000 
   5.80355000   4.99470000   9.29166000 
   9.82751000  11.54430000   5.61852000 
   6.98288000   2.32475000   7.47300000 
   8.70349000   8.27757000   2.87137000 
   9.27559000   5.60413000   2.01307000 
   3.45403000  11.17080000   0.01089870 
   0.86921000   9.81275000   2.48281000 
   5.95989000   2.76944000   2.63093000 
   9.94967000   4.82692000   4.42457000 
   8.02570000   2.97900000   1.00698000 
   8.92549000   6.53704000   6.33792000 
   8.74561000   0.25510700   7.68281000 
   7.45007000   6.76146000  10.32640000 
   7.39053000   9.38280000  10.41040000 
   5.74236000   0.10460100   9.64449000 
   3.25739000   6.76114000   0.12890100 
   3.92159000   3.97952000   3.74458000 
  10.49860000   5.80501000   8.53292000 
   1.61245000   6.56021000   6.33027000 
   0.70924700   3.69692000   1.30622000 
   6.22128000   8.46040000   1.71675000 
   5.10063000   7.41964000   3.92913000 
  12.00500000   2.26097000   5.24354000 
  12.37550000   0.01485120   6.76057000 
   8.05264000   2.20187000   4.57518000 
   0.14578100   9.76855000  10.20460000 
  11.11480000   0.32672000   3.25533000 
  10.46200000   9.33617000  11.49860000 
   3.96890000   0.97879600   1.78120000 
  10.27540000   0.08101990   9.72627000 
   3.85254000   5.24736000   6.06449000 
  10.67980000   2.56711000   2.13062000 
   0.32303600   0.59832500   0.15962100 
  12.23720000   6.92188000   3.64010000 
   4.61744000   8.46560000   9.65243000 
   0.72591200   3.12766000   8.46287000 
   5.40828000  11.60450000   3.50416000 
   9.80979000   9.64683000   8.38680000 
   4.13765000   9.10795000   8.86120000 
   0.31361400   2.90010000   9.47086000 
  12.23450000   6.97175000   2.52428000 
   5.45324000  10.82020000   4.29688000 
   0.15670300  11.96340000   0.51418100 
   2.69890000  10.50180000   6.25398000 
   3.32845000  10.99800000   7.01894000 
   5.06231000   1.90030000   5.54466000 
   4.22124000   1.84031000   6.25957000 
  10.70180000   9.93471000   7.75101000 
