POSCAR file mixion
1.0
  12.40000000   0.00000000   0.00000000 
   0.00000000  12.40000000   0.00000000 
   0.00000000   0.00000000  12.40000000 
H O N
   127    64     6 
Cartesian
   4.10252000  11.54110000   5.97037000 
   2.66855000   7.79657000   9.22192000 
   8.90522000  10.74120000   3.20573000 
   8.71198000   3.05939000   0.34497700 
   7.70179000   7.64098000   5.64073000 
  11.40470000   9.37311000   4.30628000 
   6.03808000   6.86319000  10.23790000 
   7.75162000   9.66493000   2.67469000 
   1.48550000   2.08783000   3.69567000 
   9.32352000   5.66436000   4.23803000 
   6.84402000   5.48462000  10.69160000 
   7.11389000   5.81280000   8.04452000 
   5.61044000  10.66620000   7.62868000 
  10.03060000   3.10432000   9.12589000 
   7.78151000   9.70311000   5.00939000 
   5.77884000   7.06197000   0.01014760 
   2.40993000   4.08764000   1.07395000 
   3.29303000   2.31701000   5.49369000 
  11.71200000   5.14437000   5.41329000 
   3.57125000   0.17064400   7.52981000 
   3.61676000   3.56007000   7.47150000 
  11.84120000  11.78350000   8.53080000 
   4.93329000  12.35150000   9.53230000 
  10.67900000   4.53933000   7.45715000 
   7.08235000   3.54067000   3.96032000 
   2.07489000   6.68965000   7.16747000 
   0.93570400   7.07030000   8.27653000 
   7.48134000   9.66773000   0.26606800 
  12.23030000   9.56320000  11.80460000 
  12.31020000  10.65850000   4.33193000 
   2.61320000   8.08006000   0.81159300 
   6.69104000   1.07171000   0.80906300 
   6.11198000   0.27445400   6.44216000 
   4.67036000   7.59644000  11.47110000 
   7.69617000   6.02525000   0.06383420 
   9.19031000   4.86269000   8.02342000 
   3.50977000   4.35399000   9.52378000 
   5.22212000   5.18594000   4.85207000 
   1.62598000   6.65089000   4.91385000 
   4.03530000   1.92657000   3.32773000 
   4.09891000   4.86181000   6.01887000 
   2.58678000   7.69989000  10.80050000 
   6.51454000   4.15378000  11.31220000 
   8.82489000  11.69030000   8.44357000 
  10.43610000   4.45213000   0.42903800 
  10.18570000   5.76984000   9.45603000 
   5.12251000  11.76740000   0.67030900 
   2.30727000  12.31420000  10.81370000 
   8.87033000   0.99622200   9.83332000 
  10.60030000   8.72251000   0.60935000 
   7.08822000   5.71671000   4.32641000 
  11.52110000   7.53855000   9.23156000 
   8.42208000  11.22060000  11.00330000 
   2.99570000   0.90628500   5.02569000 
   5.22302000   5.63420000   9.49011000 
   8.08097000   9.84534000   6.54276000 
   1.43563000   9.52631000   4.63601000 
   3.21451000   9.87138000  10.44890000 
   5.17205000   8.55684000   9.22711000 
  12.31590000   2.07052000   3.68764000 
   8.80387000   6.77962000   0.93043900 
   9.61375000  12.21400000   6.13700000 
   1.17016000   9.81277000  11.09240000 
   9.38581000  10.33790000  12.08350000 
   6.74118000   2.15510000   4.74304000 
   6.26225000   4.86516000   0.72818900 
   8.78552000   0.86653800   1.83401000 
   3.45227000  10.72640000   1.68634000 
  10.10030000   5.00170000   3.07418000 
   5.26795000   2.90330000   2.95207000 
  11.11840000   3.79719000   5.90251000 
   7.30417000   4.24770000   7.65939000 
   6.56057000   1.65902000   6.80015000 
   7.74523000   1.70271000   2.47451000 
   6.20878000   5.09689000   3.01729000 
   3.27042000   6.55983000   5.06610000 
   2.69332000   8.57397000   4.96511000 
   7.88303000   6.25259000   6.23919000 
   5.31572000   1.59748000   1.32022000 
   0.26061100   5.67159000   3.24407000 
   0.94774100  11.48930000   2.24226000 
  10.23210000   1.66226000   4.90961000 
   0.58879400   0.38473400   2.89750000 
  10.80640000  11.79870000   2.82794000 
  11.52560000  10.41610000   6.55080000 
  11.76820000   6.91153000   3.98516000 
  10.76440000   7.98021000   2.37275000 
  11.76020000   9.74332000   8.01581000 
   8.79652000   3.75180000  11.35610000 
   2.93415000   0.42414900   8.88437000 
   5.60501000   3.03842000   7.75134000 
   0.17880500   8.49607000   9.77887000 
   0.95627800   0.24393700  10.05940000 
  11.28810000   9.91649000   1.40121000 
   3.52305000   3.18543000   1.25750000 
   5.77743000  10.24890000   0.81606100 
  11.28260000   0.60344900   9.40671000 
   3.98225000   1.99652000   7.54256000 
   6.61658000   9.04331000   8.89230000 
   4.07066000  10.61940000  11.65160000 
   5.83978000  11.21380000   9.93849000 
   9.68370000  12.21290000   3.89050000 
  10.61320000   7.06402000  12.32250000 
   4.86407000   4.56860000   1.53228000 
   6.16103000  10.22670000   6.22385000 
   0.21515200   4.54731000   1.41522000 
   1.38269000   7.99471000   0.04432490 
   2.95544000   3.26402000  11.48330000 
  10.13660000   2.40407000  10.57100000 
   2.62291000   2.34018000  10.32700000 
   6.19296000   2.98758000   9.15221000 
   2.71049000  10.05830000   2.88376000 
   8.96943000   9.29303000   8.81838000 
   3.32325000   5.72143000   8.55097000 
  10.91040000   5.77590000   1.09444000 
   7.39619000   0.48921700   9.98107000 
   0.84590400   3.44870000   2.34623000 
   2.68654000  11.10130000   5.62642000 
   9.68530000   7.17053000   9.94626000 
   8.33860000   0.42794700   5.46086000 
  10.03380000   3.06111000   4.28102000 
   9.87513000  10.77300000   7.58591000 
   7.21939000   8.24111000   0.92614900 
   4.73484000   2.92501000  10.83300000 
   8.54061000   9.19240000  10.37940000 
   5.89275000   2.11669000  11.41040000 
   9.63779000   8.71035000   3.34084000 
   0.22436200  11.83180000   2.79231000 
   1.89397000   0.53609100  10.25270000 
  10.48700000   8.14320000   3.35890000 
  10.06350000   2.22266000   9.62149000 
   0.72596100   2.03434000   3.09926000 
   8.95506000  11.13030000   7.60022000 
   5.82488000   4.77322000   1.56844000 
  10.26900000   6.44063000  10.14490000 
  12.07050000   9.86461000   4.90270000 
  12.15000000   8.19632000   8.87681000 
   8.36321000   0.20522900  10.11700000 
   2.98206000   1.81982000   4.71131000 
   3.76790000   0.56364100   8.42933000 
   7.61465000   9.28187000   5.89709000 
   5.76046000  12.17160000  10.00930000 
  11.57270000   4.60756000   6.19164000 
   3.15600000  11.85460000   5.97285000 
   9.27822000   0.14127700   5.29624000 
   4.05981000   2.82742000   7.01721000 
   4.48008000   5.53553000   5.42797000 
   5.00362000  10.85600000   0.84179200 
   0.97066400   4.42754000   2.07722000 
   3.20938000   3.79646000   0.61836100 
   9.43069000   4.87201000   3.75835000 
   3.80942000   4.88538000   8.72906000 
   2.54874000  10.44570000   1.99116000 
   8.67294000   8.65111000   9.50815000 
  11.35930000  10.50740000   7.50797000 
  10.71620000   2.44321000   4.62518000 
   6.46735000   2.92699000   8.16409000 
   7.87721000   6.70125000   5.43619000 
   8.28180000  10.02850000   3.46868000 
   7.85268000   6.62171000   0.88069200 
   0.57948500   9.12796000  11.30440000 
  10.07450000   4.46505000   8.25254000 
   9.84504000  11.97190000   2.93679000 
   7.72992000   5.13738000   7.65262000 
   7.12556000   4.91325000  11.45730000 
   9.35183000   3.42114000  12.07560000 
   3.13563000   8.07441000  10.03450000 
   5.73209000   1.07294000   0.56145400 
   6.53806000   1.08967000   6.06973000 
   6.10396000   6.13459000   9.46356000 
   5.76573000   9.33297000   9.22340000 
   7.07981000   2.57307000   3.99206000 
  10.59070000   7.36040000   0.83350700 
  12.09720000   0.02691180   9.27669000 
   1.76562000   6.57271000   8.09122000 
   2.41076000   7.06193000   5.32689000 
  10.78970000   9.75764000   0.55109400 
   8.15728000   1.55190000   1.57639000 
   6.48243000   5.01835000   4.00817000 
   2.03123000   7.37933000   0.44540700 
   4.59226000   2.29490000   2.58594000 
   5.56501000  10.88600000   6.68710000 
   3.10973000   3.16983000  10.52730000 
   5.65149000   7.51245000  11.54800000 
   8.49202000  10.32460000  11.50430000 
   5.72373000   2.79175000  10.75560000 
   0.02108970   6.08483000   4.12119000 
   3.34990000  10.67560000  10.98110000 
   2.46474000   9.55060000   4.76998000 
  11.05790000   4.78319000   1.09945000 
   7.19443000   9.19804000   1.06983000 
  12.38040000   3.96795000  11.02980000 
   0.33973500   5.01410000  11.03540000 
   1.25633000   2.26542000   7.68273000 
   0.71938500   1.96417000   6.77792000 
   5.26174000   8.31768000   3.80040000 
   5.41967000   7.69176000   2.90503000 
